Maximize
	+ 6 x1 + 3 x4 
Maximize
	+ 5 x1 + 5 x2 + 3 x3 - 2 x4 
Maximize
	+ 5 x1 + 1 x3 + 1 x4 
Subject To
	- 1 x1 + 3 x3 + 3 x4 <= 2
Bounds
	0 <= x1 <= 4
	0 <= x2 <= 4
	0 <= x3 <= 4
	0 <= x4 <= 4
Integers
	x1 x2 x3 x4 
End